\* BuyingBestsellers *\
Maximize
OBJ: x0 + x1 + x10 + x11 + x12 + x13 + x14 + x15 + x16 + x17 + x18 + x19 + x2
 + x20 + x21 + x22 + x23 + x24 + x25 + x26 + x27 + x28 + x29 + x3 + x30 + x31
 + x32 + x33 + x34 + x35 + x36 + x37 + x4 + x5 + x6 + x7 + x8 + x9
Subject To
_C1: 264 x0 + 288 x1 + 361 x10 + 381 x11 + 256 x12 + 392 x13 + 390 x14
 + 1104 x15 + 530 x16 + 313 x17 + 438 x18 + 323 x19 + 317 x2 + 422 x20
 + 278 x21 + 771 x22 + 368 x23 + 460 x24 + 384 x25 + 369 x26 + 470 x27
 + 294 x28 + 309 x29 + 636 x3 + 358 x30 + 396 x31 + 392 x32 + 405 x33
 + 1098 x34 + 398 x35 + 447 x36 + 336 x37 + 766 x4 + 607 x5 + 607 x6 + 384 x7
 + 279 x8 + 312 x9 <= 3600
Binaries
x0
x1
x10
x11
x12
x13
x14
x15
x16
x17
x18
x19
x2
x20
x21
x22
x23
x24
x25
x26
x27
x28
x29
x3
x30
x31
x32
x33
x34
x35
x36
x37
x4
x5
x6
x7
x8
x9
End
